(declare-fun var0 () String)
(declare-fun var1 () String)
(declare-fun var2 () String)
(declare-fun var3 () String)
(declare-fun var4 () String)
(declare-fun var5 () String)
(declare-fun var6 () String)
(declare-fun var7 () String)
(declare-fun var8 () String)
(declare-fun var9 () String)
(declare-fun var10 () String)
(declare-fun var11 () String)
(declare-fun var12 () String)
(declare-fun var13 () String)
(declare-fun var14 () String)
(declare-fun var15 () String)
(declare-fun var16 () String)
(declare-fun var17 () String)
(declare-fun var18 () String)
(declare-fun var19 () String)
(declare-fun var20 () String)
(declare-fun var21 () String)
(declare-fun var22 () String)
(declare-fun var23 () String)
(declare-fun var24 () String)
(declare-fun var25 () String)
(declare-fun var26 () String)
(declare-fun var27 () String)
(declare-fun var28 () String)
(declare-fun var29 () String)
(declare-fun var30 () String)
(declare-fun var31 () String)
(declare-fun var32 () String)
(declare-fun var33 () String)
(declare-fun var34 () String)
(declare-fun var35 () String)
(declare-fun var36 () String)
(declare-fun var37 () String)
(declare-fun var38 () String)
(declare-fun var39 () String)
(declare-fun var40 () String)
(declare-fun var41 () String)
(declare-fun var42 () String)
(declare-fun var43 () String)
(declare-fun var44 () String)
(declare-fun var45 () String)
(declare-fun var46 () String)
(declare-fun var47 () String)
(declare-fun var48 () String)
(declare-fun var49 () String)
(declare-fun var50 () String)
(declare-fun var51 () String)
(declare-fun var52 () String)
(declare-fun var53 () String)
(declare-fun var54 () String)
(declare-fun var55 () String)
(declare-fun var56 () String)
(declare-fun var57 () String)
(declare-fun var58 () String)
(declare-fun var59 () String)
(declare-fun var60 () String)
(assert (= var0 (str.++ var1 var2)))
(assert (= var2 (str.++ var3 var4)))
(assert (= var4 (str.++ var5 var6)))
(assert (= var6 (str.++ var7 var8)))
(assert (= var8 (str.++ var9 var10)))
(assert (= var10 (str.++ var11 var12)))
(assert (= var12 (str.++ var13 var14)))
(assert (= var14 (str.++ var15 var16)))
(assert (= var16 (str.++ var17 var18)))
(assert (= var18 (str.++ var19 var20)))
(assert (= var20 (str.++ var21 var22)))
(assert (= var22 (str.++ var23 var24)))
(assert (= var24 (str.++ var25 var26)))
(assert (= var26 (str.++ var27 var28)))
(assert (= var28 (str.++ var29 var30)))
(assert (= var30 (str.++ var31 var32)))
(assert (= var32 (str.++ var33 var34)))
(assert (= var34 (str.++ var35 var36)))
(assert (= var36 (str.++ var37 var38)))
(assert (= var38 (str.++ var39 var40)))
(assert (= var40 (str.++ var41 var42)))
(assert (= var42 (str.++ var43 var44)))
(assert (= var44 (str.++ var45 var46)))
(assert (= var46 (str.++ var47 var48)))
(assert (= var48 (str.++ var49 var50)))
(assert (= var50 (str.++ var51 var52)))
(assert (= var52 (str.++ var53 var54)))
(assert (= var54 (str.++ var55 var56)))
(assert (= var56 (str.++ var57 var58)))
(assert (= var58 (str.++ var59 var60)))
(assert (= var0 "solution"))
(assert (= "U" (str.at var45 337)))
(assert (= "f" (str.at var45 589)))
(assert (= "1" (str.at var16 317)))
(assert (= "S" (str.at var51 711)))
(assert (= "t" (str.at var53 733)))
(assert (= ">" (str.at var38 505)))
(assert (= "O" (str.at var59 179)))
(assert (= "4" (str.at var51 894)))
(assert (= "w" (str.at var21 254)))
(assert (= "L" (str.at var49 760)))
(assert (= "B" (str.at var59 101)))
(assert (= "^" (str.at var19 657)))
(assert (= "[" (str.at var60 353)))
(assert (= "}" (str.at var6 227)))
(assert (= "h" (str.at var20 650)))
(assert (= "+" (str.at var22 646)))
(assert (= "n" (str.at var51 646)))
(assert (= "T" (str.at var7 943)))
(assert (= "]" (str.at var14 12)))
(assert (= "3" (str.at var12 378)))
(assert (= "W" (str.at var23 578)))
(assert (= "_" (str.at var51 559)))
(assert (= "U" (str.at var45 633)))
(assert (= "+" (str.at var13 255)))
(assert (= "r" (str.at var15 833)))
(assert (= "I" (str.at var0 604)))
(assert (= "Q" (str.at var31 406)))
(assert (= "r" (str.at var29 835)))
(assert (= "@" (str.at var51 289)))
(assert (= "?" (str.at var56 757)))
(assert (= "J" (str.at var54 130)))
(assert (= "(" (str.at var57 776)))
(assert (= "w" (str.at var14 548)))
(assert (= "|" (str.at var33 409)))
(assert (= "]" (str.at var58 123)))
(assert (= "2" (str.at var6 123)))
(assert (= "!" (str.at var14 67)))
(assert (= "-" (str.at var13 919)))
(assert (= "~" (str.at var17 121)))
(assert (= "D" (str.at var6 242)))
(assert (= "f" (str.at var48 7)))
(assert (= "-" (str.at var50 898)))
(assert (= "p" (str.at var54 209)))
(assert (= "y" (str.at var0 167)))
(assert (= "o" (str.at var40 746)))
(assert (= "b" (str.at var58 633)))
(assert (= "(" (str.at var44 788)))
(assert (= "f" (str.at var31 177)))
(assert (= "," (str.at var30 274)))
(assert (= "x" (str.at var27 386)))
(assert (= "T" (str.at var31 409)))
(assert (= "H" (str.at var29 501)))
(assert (= "W" (str.at var49 877)))
(assert (= "U" (str.at var25 603)))
(assert (= "q" (str.at var31 240)))
(assert (= "9" (str.at var48 561)))
(assert (= "@" (str.at var57 686)))
(assert (= "\\" (str.at var35 811)))
(assert (= "@" (str.at var38 315)))
(assert (= "Z" (str.at var16 581)))
(assert (= "^" (str.at var28 140)))
(assert (= "n" (str.at var18 842)))
(assert (= "G" (str.at var10 538)))
(assert (= "2" (str.at var24 723)))
(assert (= "v" (str.at var7 241)))
(assert (= "d" (str.at var17 284)))
(assert (= "c" (str.at var48 698)))
(assert (= "=" (str.at var59 344)))
(assert (= "[" (str.at var45 935)))
(assert (= "F" (str.at var13 563)))
(assert (= "P" (str.at var7 698)))
(assert (= "0" (str.at var3 888)))
(assert (= "B" (str.at var21 577)))
(assert (= "e" (str.at var22 733)))
(assert (= "*" (str.at var18 13)))
(assert (= "|" (str.at var17 696)))
(assert (= "@" (str.at var46 741)))
(assert (= "n" (str.at var44 743)))
(assert (= "L" (str.at var3 13)))
(assert (= "S" (str.at var16 474)))
(assert (= """" (str.at var28 718)))
(assert (= "/" (str.at var13 979)))
(assert (= ":" (str.at var5 373)))
(assert (= "b" (str.at var34 742)))
(assert (= "U" (str.at var16 111)))
(assert (= "N" (str.at var40 714)))
(assert (= "b" (str.at var14 164)))
(assert (= "*" (str.at var14 917)))
(assert (= "I" (str.at var56 316)))
(assert (= "o" (str.at var44 720)))
(assert (= "y" (str.at var28 994)))
(assert (= "S" (str.at var51 516)))
(assert (= "7" (str.at var49 34)))
(assert (= "q" (str.at var6 704)))
(assert (= "R" (str.at var54 667)))
(assert (= "'" (str.at var56 869)))
(assert (= "Q" (str.at var55 273)))
(assert (= "A" (str.at var18 365)))
(assert (= "[" (str.at var47 488)))
(assert (= "m" (str.at var47 486)))
(assert (= "A" (str.at var26 22)))
(assert (= "{" (str.at var55 76)))
(assert (= "S" (str.at var44 532)))
(assert (= "Q" (str.at var20 953)))
(assert (= "f" (str.at var43 787)))
(assert (= "e" (str.at var14 443)))
(assert (= "*" (str.at var31 391)))
(assert (= "%" (str.at var42 9)))
(assert (= "_" (str.at var21 336)))
(assert (= "e" (str.at var24 805)))
(assert (= "7" (str.at var27 736)))
(assert (= "N" (str.at var15 222)))
(assert (= "w" (str.at var40 703)))
(assert (= "X" (str.at var39 829)))
(assert (= "A" (str.at var27 189)))
(assert (= "[" (str.at var51 890)))
(assert (= "`" (str.at var17 291)))
(assert (= "R" (str.at var12 50)))
(assert (= "r" (str.at var35 650)))
(assert (= "x" (str.at var27 100)))
(assert (= "R" (str.at var50 829)))
(assert (= "-" (str.at var27 951)))
(assert (= "R" (str.at var54 658)))
(assert (= ";" (str.at var40 209)))
(assert (= ")" (str.at var57 695)))
(assert (= "j" (str.at var48 495)))
(assert (= "Z" (str.at var21 922)))
(assert (= "7" (str.at var7 467)))
(assert (= "~" (str.at var26 247)))
(assert (= "d" (str.at var38 804)))
(assert (= "~" (str.at var47 737)))
(assert (= "$" (str.at var19 127)))
(assert (= "5" (str.at var54 615)))
(assert (= "q" (str.at var18 764)))
(assert (= "[" (str.at var53 483)))
(assert (= "w" (str.at var53 294)))
(assert (= "Y" (str.at var26 226)))
(assert (= "u" (str.at var9 861)))
(assert (= "-" (str.at var58 865)))
(assert (= "!" (str.at var49 502)))
(assert (= """" (str.at var42 368)))
(assert (= "v" (str.at var44 155)))
(assert (= "q" (str.at var25 323)))
(assert (= "m" (str.at var14 717)))
(assert (= ")" (str.at var53 161)))
(assert (= "#" (str.at var33 997)))
(assert (= "t" (str.at var23 279)))
(assert (= "~" (str.at var33 106)))
(assert (= "u" (str.at var20 933)))
(assert (= "R" (str.at var22 449)))
(assert (= "E" (str.at var10 946)))
(assert (= "}" (str.at var30 268)))
(assert (= "_" (str.at var21 167)))
(assert (= "V" (str.at var2 932)))
(assert (= "Y" (str.at var10 119)))
(assert (= "<" (str.at var12 477)))
(assert (= "d" (str.at var12 926)))
(assert (= "z" (str.at var44 636)))
(assert (= "$" (str.at var14 725)))
(assert (= "0" (str.at var58 257)))
(assert (= "m" (str.at var42 26)))
(assert (= "b" (str.at var33 49)))
(assert (= "2" (str.at var33 798)))
(assert (= "K" (str.at var38 311)))
(assert (= "<" (str.at var37 45)))
(assert (= "d" (str.at var14 673)))
(assert (= "o" (str.at var3 565)))
(assert (= "m" (str.at var33 41)))
(assert (= "x" (str.at var55 561)))
(assert (= "Q" (str.at var15 188)))
(assert (= "&" (str.at var2 335)))
(assert (= "/" (str.at var59 954)))
(assert (= "," (str.at var8 268)))
(assert (= "8" (str.at var37 982)))
(assert (= "K" (str.at var49 291)))
(assert (= "l" (str.at var41 181)))
(assert (= "t" (str.at var42 977)))
(assert (= "c" (str.at var42 839)))
(assert (= "]" (str.at var48 717)))
(assert (= "A" (str.at var12 936)))
(assert (= "b" (str.at var31 950)))
(assert (= "[" (str.at var32 628)))
(assert (= "i" (str.at var44 821)))
(assert (= "R" (str.at var22 259)))
(assert (= "z" (str.at var45 521)))
(assert (= "7" (str.at var11 751)))
(assert (= "M" (str.at var11 528)))
(assert (= "!" (str.at var36 93)))
(assert (= "9" (str.at var51 769)))
(assert (= "C" (str.at var22 155)))
(assert (= "Y" (str.at var21 573)))
(assert (= "r" (str.at var23 806)))
(assert (= "T" (str.at var29 687)))
(assert (= "F" (str.at var19 117)))
(assert (= "/" (str.at var48 470)))
(assert (= "q" (str.at var0 253)))
(assert (= "<" (str.at var53 41)))
(assert (= "&" (str.at var9 585)))
(assert (= "=" (str.at var21 952)))
(assert (= "p" (str.at var7 976)))
(assert (= "\\" (str.at var55 934)))
(assert (= "8" (str.at var38 434)))
(assert (= "y" (str.at var36 456)))
(assert (= "3" (str.at var27 306)))
(assert (= "E" (str.at var33 642)))
(assert (= "|" (str.at var27 815)))
(assert (= """" (str.at var53 785)))
(assert (= "}" (str.at var50 540)))
(assert (= "u" (str.at var13 347)))
(assert (= "j" (str.at var24 918)))
(assert (= "]" (str.at var19 563)))
(assert (= "R" (str.at var1 70)))
(assert (= "~" (str.at var14 535)))
(assert (= "P" (str.at var10 298)))
(assert (= "0" (str.at var4 417)))
(assert (= "H" (str.at var7 756)))
(assert (= "s" (str.at var28 885)))
(assert (= "8" (str.at var33 850)))
(assert (= "Z" (str.at var11 749)))
(assert (= "+" (str.at var39 367)))
(assert (= "M" (str.at var10 675)))
(assert (= "/" (str.at var13 803)))
(assert (= "{" (str.at var7 347)))
(assert (= "S" (str.at var7 43)))
(assert (= "D" (str.at var49 708)))
(assert (= "s" (str.at var13 843)))
(assert (= "=" (str.at var58 716)))
(assert (= "w" (str.at var53 90)))
(assert (= "]" (str.at var30 159)))
(assert (= "k" (str.at var29 541)))
(assert (= "4" (str.at var45 90)))
(assert (= "#" (str.at var41 365)))
(assert (= "{" (str.at var23 92)))
(assert (= ")" (str.at var49 123)))
(assert (= "S" (str.at var17 55)))
(assert (= "1" (str.at var46 545)))
(assert (= "?" (str.at var46 206)))
(assert (= "v" (str.at var13 106)))
(assert (= "A" (str.at var8 760)))
(assert (= "{" (str.at var30 265)))
(assert (= "V" (str.at var33 847)))
(assert (= "'" (str.at var29 261)))
(assert (= "`" (str.at var11 250)))
(assert (= "$" (str.at var30 368)))
(assert (= "`" (str.at var29 857)))
(assert (= "k" (str.at var21 780)))
(assert (= "U" (str.at var44 913)))
(assert (= "D" (str.at var24 328)))
(assert (= "N" (str.at var27 422)))
(assert (= "b" (str.at var44 728)))
(assert (= "j" (str.at var0 500)))
(assert (= "x" (str.at var40 490)))
(assert (= "C" (str.at var51 267)))
(assert (= "~" (str.at var0 165)))
(assert (= "w" (str.at var15 635)))
(assert (= "_" (str.at var28 649)))
(assert (= "G" (str.at var42 903)))
(assert (= "}" (str.at var45 878)))
(assert (= "X" (str.at var24 222)))
(assert (= "l" (str.at var37 750)))
(assert (= "]" (str.at var4 988)))
(assert (= "S" (str.at var40 410)))
(assert (= "5" (str.at var11 368)))
(assert (= "O" (str.at var60 884)))
(assert (= "u" (str.at var32 265)))
(assert (= "5" (str.at var41 754)))
(assert (= "4" (str.at var20 185)))
(assert (= "p" (str.at var9 170)))
(assert (= "6" (str.at var25 952)))
(assert (= "<" (str.at var32 828)))
(assert (= "A" (str.at var60 660)))
(assert (= "d" (str.at var41 295)))
(assert (= "+" (str.at var21 4)))
(assert (= "]" (str.at var54 60)))
(assert (= "k" (str.at var49 772)))
(assert (= "{" (str.at var1 629)))
(assert (= "[" (str.at var36 505)))
(assert (= "8" (str.at var20 996)))
(assert (= "1" (str.at var35 242)))
(assert (= "y" (str.at var25 307)))
(assert (= "c" (str.at var31 673)))
(assert (= "Z" (str.at var13 594)))
(assert (= "S" (str.at var25 6)))
(assert (= "U" (str.at var10 714)))
(assert (= "H" (str.at var21 40)))
(assert (= "!" (str.at var29 675)))
(assert (= "I" (str.at var10 751)))
(assert (= "o" (str.at var30 129)))
(assert (= "5" (str.at var32 10)))
(assert (= "Y" (str.at var10 135)))
(assert (= ":" (str.at var28 819)))
(assert (= "A" (str.at var31 836)))
(assert (= "m" (str.at var28 830)))
(assert (= "F" (str.at var20 523)))
(assert (= "~" (str.at var26 919)))
(assert (= "k" (str.at var2 174)))
(assert (= "t" (str.at var37 864)))
(assert (= "5" (str.at var10 220)))
(assert (= "X" (str.at var13 777)))
(assert (= ")" (str.at var22 429)))
(assert (= "m" (str.at var41 140)))
(assert (= "l" (str.at var59 545)))
(assert (= "-" (str.at var4 790)))
(assert (= "u" (str.at var20 59)))
(assert (= "3" (str.at var22 803)))
(assert (= "x" (str.at var36 958)))
(assert (= "Q" (str.at var41 619)))
(assert (= "z" (str.at var39 642)))
(assert (= "~" (str.at var49 685)))
(assert (= "=" (str.at var1 194)))
(assert (= "{" (str.at var27 464)))
(assert (= "H" (str.at var50 269)))
(assert (= "v" (str.at var38 839)))
(assert (= "O" (str.at var43 379)))
(assert (= "X" (str.at var30 438)))
(assert (= "z" (str.at var6 776)))
(assert (= "C" (str.at var18 37)))
(assert (= "E" (str.at var19 378)))
(assert (= "<" (str.at var12 753)))
(assert (= "i" (str.at var7 125)))
(assert (= "v" (str.at var25 768)))
(assert (= "0" (str.at var44 166)))
(assert (= "-" (str.at var58 601)))
(assert (= "F" (str.at var24 675)))
(assert (= "Q" (str.at var4 321)))
(assert (= "K" (str.at var10 376)))
(assert (= "3" (str.at var33 284)))
(assert (= "\\" (str.at var53 757)))
(assert (= "*" (str.at var4 211)))
(assert (= "1" (str.at var7 8)))
(assert (= "B" (str.at var25 488)))
(assert (= "l" (str.at var29 58)))
(assert (= "h" (str.at var21 961)))
(assert (= "B" (str.at var57 689)))
(assert (= "a" (str.at var51 926)))
(assert (= "r" (str.at var11 782)))
(assert (= "C" (str.at var47 634)))
(assert (= "?" (str.at var30 227)))
(assert (= "M" (str.at var54 179)))
(assert (= "(" (str.at var11 430)))
(assert (= "|" (str.at var43 285)))
(assert (= "n" (str.at var0 47)))
(assert (= "A" (str.at var13 909)))
(assert (= "{" (str.at var30 411)))
(assert (= ")" (str.at var27 67)))
(assert (= "O" (str.at var37 481)))
(assert (= "L" (str.at var58 823)))
(assert (= "^" (str.at var5 281)))
(assert (= "G" (str.at var46 631)))
(assert (= "/" (str.at var34 661)))
(assert (= "p" (str.at var31 884)))
(assert (= "@" (str.at var42 882)))
(assert (= "b" (str.at var34 291)))
(assert (= "s" (str.at var31 976)))
(assert (= "S" (str.at var26 814)))
(assert (= "$" (str.at var17 97)))
(assert (= "P" (str.at var24 181)))
(assert (= "3" (str.at var19 449)))
(assert (= "Z" (str.at var38 737)))
(assert (= "p" (str.at var60 131)))
(assert (= "_" (str.at var42 779)))
(assert (= "b" (str.at var2 309)))
(assert (= "C" (str.at var60 595)))
(assert (= "7" (str.at var60 320)))
(assert (= "5" (str.at var14 571)))
(assert (= "*" (str.at var48 503)))
(assert (= "_" (str.at var9 411)))
(assert (= "/" (str.at var29 143)))
(assert (= "p" (str.at var8 10)))
(assert (= "=" (str.at var43 999)))
(assert (= "L" (str.at var51 64)))
(assert (= "L" (str.at var44 855)))
(assert (= "|" (str.at var0 600)))
(assert (= "S" (str.at var12 221)))
(assert (= "D" (str.at var44 622)))
(assert (= "m" (str.at var54 3)))
(assert (= "I" (str.at var46 499)))
(assert (= "a" (str.at var0 622)))
(assert (= "`" (str.at var24 157)))
(assert (= "}" (str.at var40 422)))
(assert (= "G" (str.at var46 10)))
(assert (= "i" (str.at var16 184)))
(assert (= "d" (str.at var55 67)))
(assert (= "\\" (str.at var4 462)))
(assert (= "A" (str.at var16 567)))
(assert (= "|" (str.at var26 890)))
(assert (= "m" (str.at var21 916)))
(assert (= "J" (str.at var48 632)))
(assert (= "H" (str.at var21 899)))
(assert (= "^" (str.at var36 22)))
(assert (= "<" (str.at var19 98)))
(assert (= "V" (str.at var58 423)))
(assert (= "/" (str.at var32 149)))
(assert (= "E" (str.at var17 288)))
(assert (= "N" (str.at var39 321)))
(assert (= "G" (str.at var27 180)))
(assert (= "'" (str.at var44 539)))
(assert (= "Z" (str.at var33 181)))
(assert (= ";" (str.at var0 153)))
(assert (= "*" (str.at var49 335)))
(assert (= "d" (str.at var34 37)))
(assert (= "`" (str.at var28 11)))
(assert (= "Y" (str.at var39 928)))
(assert (= "R" (str.at var22 0)))
(assert (= "o" (str.at var27 90)))
(assert (= "(" (str.at var24 922)))
(assert (= "U" (str.at var7 479)))
(assert (= "u" (str.at var6 384)))
(assert (= "]" (str.at var0 563)))
(assert (= "t" (str.at var28 403)))
(assert (= "c" (str.at var16 880)))
(assert (= "l" (str.at var54 904)))
(assert (= "?" (str.at var14 765)))
(assert (= "N" (str.at var7 117)))
(assert (= "B" (str.at var21 515)))
(assert (= "g" (str.at var26 615)))
(assert (= "s" (str.at var15 4)))
(assert (= "I" (str.at var36 8)))
(assert (= "7" (str.at var39 907)))
(assert (= ")" (str.at var38 137)))
(assert (= "K" (str.at var29 770)))
(assert (= "7" (str.at var60 183)))
(assert (= "*" (str.at var3 265)))
(assert (= "]" (str.at var35 945)))
(assert (= ";" (str.at var1 284)))
(assert (= "]" (str.at var44 452)))
(assert (= "}" (str.at var15 723)))
(assert (= "_" (str.at var48 979)))
(assert (= "3" (str.at var41 139)))
(assert (= "x" (str.at var43 671)))
(assert (= "j" (str.at var6 70)))
(assert (= "j" (str.at var49 575)))
(assert (= "y" (str.at var14 631)))
(assert (= "H" (str.at var24 116)))
(assert (= "j" (str.at var32 939)))
(assert (= "J" (str.at var36 321)))
(assert (= "!" (str.at var32 255)))
(assert (= "P" (str.at var7 824)))
(assert (= "." (str.at var57 304)))
(assert (= "Q" (str.at var33 232)))
(assert (= "i" (str.at var14 996)))
(assert (= "3" (str.at var45 824)))
(assert (= "`" (str.at var50 935)))
(assert (= "#" (str.at var1 741)))
(assert (= "n" (str.at var42 973)))
(assert (= "S" (str.at var22 431)))
(assert (= "2" (str.at var2 990)))
(assert (= "I" (str.at var5 916)))
(assert (= "N" (str.at var48 280)))
(assert (= "X" (str.at var56 182)))
(assert (= "s" (str.at var5 514)))
(assert (= "S" (str.at var34 260)))
(assert (= "t" (str.at var14 799)))
(assert (= "C" (str.at var47 59)))
(assert (= "|" (str.at var54 51)))
(assert (= "X" (str.at var5 734)))
(assert (= "c" (str.at var34 756)))
(assert (= "b" (str.at var41 902)))
(assert (= "4" (str.at var35 982)))
(assert (= "I" (str.at var46 718)))
(assert (= "J" (str.at var56 411)))
(assert (= "`" (str.at var40 853)))
(assert (= "9" (str.at var26 873)))
(assert (= "," (str.at var0 135)))
(assert (= "K" (str.at var17 920)))
(assert (= "<" (str.at var1 894)))
(assert (= "_" (str.at var11 412)))
(assert (= "i" (str.at var41 469)))
(assert (= "d" (str.at var8 94)))
(assert (= "v" (str.at var8 142)))
(assert (= "X" (str.at var42 604)))
(assert (= "$" (str.at var50 173)))
(assert (= "3" (str.at var47 715)))
(assert (= "g" (str.at var39 541)))
(assert (= "o" (str.at var9 757)))
(assert (= "h" (str.at var8 509)))
(assert (= "!" (str.at var24 951)))
(assert (= "?" (str.at var39 613)))
(assert (= ";" (str.at var60 245)))
(assert (= "u" (str.at var15 610)))
(assert (= "]" (str.at var59 897)))
(assert (= "#" (str.at var47 881)))
(assert (= "b" (str.at var14 817)))
(assert (= "T" (str.at var21 712)))
(assert (= "[" (str.at var35 654)))
(assert (= "L" (str.at var3 588)))
(assert (= "a" (str.at var47 298)))
(assert (= "A" (str.at var36 394)))
(assert (= "L" (str.at var29 571)))
(assert (= "n" (str.at var38 327)))
(assert (= "`" (str.at var13 825)))
(assert (= "O" (str.at var12 553)))
(assert (= "W" (str.at var49 258)))
(assert (= "F" (str.at var1 702)))
(assert (= ">" (str.at var56 679)))
(assert (= "9" (str.at var8 447)))
(assert (= "u" (str.at var11 105)))
(assert (= "\\" (str.at var15 782)))
(assert (= "z" (str.at var13 136)))
(assert (= "0" (str.at var36 225)))
(assert (= """" (str.at var40 406)))
(assert (= "A" (str.at var22 187)))
(assert (= "+" (str.at var54 510)))
(assert (= "|" (str.at var45 504)))
(assert (= "M" (str.at var28 578)))
(assert (= "R" (str.at var7 91)))
(assert (= "y" (str.at var33 231)))
(assert (= "m" (str.at var50 669)))
(assert (= "0" (str.at var46 547)))
(assert (= "Q" (str.at var53 694)))
(assert (= "W" (str.at var28 740)))
(assert (= "?" (str.at var10 836)))
(assert (= "D" (str.at var21 938)))
(assert (= "F" (str.at var14 219)))
(assert (= "G" (str.at var57 888)))
(assert (= "F" (str.at var27 124)))
(assert (= "B" (str.at var51 912)))
(assert (= "Z" (str.at var59 826)))
(assert (= "U" (str.at var21 147)))
(assert (= "X" (str.at var60 436)))
(assert (= "?" (str.at var8 739)))
(assert (= "u" (str.at var27 723)))
(assert (= "C" (str.at var53 341)))
(assert (= "+" (str.at var41 510)))
(assert (= "i" (str.at var36 164)))
(assert (= "+" (str.at var34 261)))
(assert (= "/" (str.at var14 171)))
(assert (= "Y" (str.at var2 153)))
(assert (= "!" (str.at var44 939)))
(assert (= "#" (str.at var1 174)))
(assert (= "'" (str.at var24 577)))
(assert (= "0" (str.at var24 359)))
(assert (= "n" (str.at var52 830)))
(assert (= "!" (str.at var14 752)))
(assert (= "?" (str.at var58 793)))
(assert (= "p" (str.at var56 544)))
(assert (= "=" (str.at var4 222)))
(assert (= "/" (str.at var54 841)))
(assert (= "p" (str.at var20 238)))
(assert (= "'" (str.at var55 117)))
(assert (= "B" (str.at var52 479)))
(assert (= "/" (str.at var37 441)))
(assert (= "e" (str.at var56 707)))
(assert (= "." (str.at var29 227)))
(assert (= "i" (str.at var21 810)))
(assert (= "P" (str.at var35 939)))
(assert (= "=" (str.at var38 490)))
(assert (= "}" (str.at var47 501)))
(assert (= "4" (str.at var6 647)))
(assert (= "[" (str.at var40 540)))
(assert (= "{" (str.at var25 733)))
(assert (= "8" (str.at var56 908)))
(assert (= "/" (str.at var26 424)))
(assert (= "w" (str.at var33 194)))
(assert (= "<" (str.at var48 872)))
(assert (= "\\" (str.at var52 79)))
(assert (= "S" (str.at var18 433)))
(assert (= "T" (str.at var17 393)))
(assert (= "C" (str.at var56 668)))
(assert (= "*" (str.at var60 604)))
(assert (= "J" (str.at var3 770)))
(assert (= "(" (str.at var21 419)))
(assert (= "J" (str.at var51 139)))
(assert (= "i" (str.at var8 250)))
(assert (= "A" (str.at var41 403)))
(assert (= "_" (str.at var44 970)))
(assert (= "v" (str.at var49 472)))
(assert (= "h" (str.at var11 220)))
(assert (= "7" (str.at var28 62)))
(assert (= "F" (str.at var16 982)))
(assert (= "," (str.at var51 700)))
(assert (= ">" (str.at var16 910)))
(assert (= "G" (str.at var38 40)))
(assert (= "9" (str.at var55 24)))
(assert (= "!" (str.at var51 75)))
(assert (= "i" (str.at var8 398)))
(assert (= "!" (str.at var35 691)))
(assert (= "2" (str.at var9 156)))
(assert (= "U" (str.at var5 779)))
(assert (= "6" (str.at var46 999)))
(assert (= "L" (str.at var34 714)))
(assert (= "." (str.at var43 958)))
(assert (= "(" (str.at var29 956)))
(assert (= "O" (str.at var48 190)))
(assert (= "r" (str.at var59 17)))
(assert (= "w" (str.at var32 234)))
(assert (= "B" (str.at var26 690)))
(assert (= "\\" (str.at var41 136)))
(assert (= "4" (str.at var41 595)))
(assert (= ";" (str.at var17 681)))
(assert (= "?" (str.at var42 222)))
(assert (= "N" (str.at var8 526)))
(assert (= "X" (str.at var19 710)))
(assert (= "o" (str.at var11 851)))
(assert (= "c" (str.at var21 925)))
(assert (= "I" (str.at var14 464)))
(assert (= "d" (str.at var32 343)))
(assert (= "#" (str.at var28 179)))
(assert (= "R" (str.at var44 752)))
(assert (= ">" (str.at var2 598)))
(assert (= "F" (str.at var53 1000)))
(assert (= "G" (str.at var20 921)))
(assert (= """" (str.at var15 383)))
(assert (= ")" (str.at var27 901)))
(assert (= ">" (str.at var8 170)))
(assert (= "l" (str.at var58 305)))
(assert (= "W" (str.at var5 684)))
(assert (= "m" (str.at var37 359)))
(assert (= "3" (str.at var4 330)))
(assert (= "^" (str.at var53 112)))
(assert (= "<" (str.at var2 635)))
(assert (= "F" (str.at var26 574)))
(assert (= ":" (str.at var48 578)))
(assert (= "!" (str.at var10 580)))
(assert (= "w" (str.at var52 402)))
(assert (= "@" (str.at var40 915)))
(assert (= "]" (str.at var42 316)))
(assert (= "[" (str.at var12 714)))
(assert (= "8" (str.at var5 440)))
(assert (= "o" (str.at var7 613)))
(assert (= "o" (str.at var18 189)))
(assert (= "g" (str.at var20 18)))
(assert (= "g" (str.at var10 5)))
(assert (= "c" (str.at var43 28)))
(assert (= "o" (str.at var48 216)))
(assert (= "!" (str.at var60 912)))
(assert (= "0" (str.at var42 698)))
(assert (= "Q" (str.at var38 87)))
(assert (= "B" (str.at var43 905)))
(assert (= "9" (str.at var4 904)))
(assert (= "q" (str.at var22 282)))
(assert (= "8" (str.at var21 924)))
(assert (= "P" (str.at var45 247)))
(assert (= "h" (str.at var54 133)))
(assert (= "}" (str.at var53 788)))
(assert (= "s" (str.at var31 690)))
(assert (= "<" (str.at var54 574)))
(assert (= "U" (str.at var22 822)))
(assert (= "m" (str.at var53 572)))
(assert (= "G" (str.at var15 843)))
(assert (= "$" (str.at var42 813)))
(assert (= "L" (str.at var60 855)))
(assert (= "w" (str.at var12 577)))
(assert (= "/" (str.at var50 337)))
(assert (= "x" (str.at var33 683)))
(assert (= "7" (str.at var24 677)))
(assert (= ")" (str.at var34 138)))
(assert (= """" (str.at var15 745)))
(assert (= "d" (str.at var54 738)))
(assert (= ":" (str.at var52 299)))
(assert (= "M" (str.at var43 42)))
(assert (= "%" (str.at var11 136)))
(assert (= "G" (str.at var28 102)))
(assert (= "_" (str.at var58 836)))
(assert (= "[" (str.at var12 610)))
(assert (= "~" (str.at var28 781)))
(assert (= "R" (str.at var44 537)))
(assert (= "g" (str.at var36 414)))
(assert (= "M" (str.at var11 716)))
(assert (= "y" (str.at var43 757)))
(assert (= "W" (str.at var48 990)))
(assert (= "0" (str.at var22 528)))
(assert (= "Y" (str.at var4 561)))
(assert (= "z" (str.at var13 702)))
(assert (= ">" (str.at var35 817)))
(assert (= ":" (str.at var54 545)))
(assert (= "U" (str.at var53 554)))
(assert (= "n" (str.at var57 433)))
(assert (= "f" (str.at var37 288)))
(assert (= "~" (str.at var53 456)))
(assert (= "p" (str.at var15 709)))
(assert (= "q" (str.at var46 488)))
(assert (= "1" (str.at var49 134)))
(assert (= "v" (str.at var49 657)))
(assert (= "D" (str.at var35 33)))
(assert (= "z" (str.at var2 719)))
(assert (= "g" (str.at var11 656)))
(assert (= "p" (str.at var53 910)))
(assert (= "L" (str.at var55 236)))
(assert (= "C" (str.at var59 588)))
(assert (= "N" (str.at var18 823)))
(assert (= "&" (str.at var42 659)))
(assert (= "i" (str.at var22 976)))
(assert (= "x" (str.at var39 914)))
(assert (= "[" (str.at var22 131)))
(assert (= "J" (str.at var21 109)))
(assert (= "J" (str.at var55 590)))
(assert (= "H" (str.at var34 348)))
(assert (= "A" (str.at var20 649)))
(assert (= "5" (str.at var55 908)))
(assert (= "H" (str.at var28 674)))
(assert (= "-" (str.at var37 747)))
(assert (= "p" (str.at var42 771)))
(assert (= "I" (str.at var19 105)))
(assert (= "s" (str.at var39 133)))
(assert (= "w" (str.at var26 830)))
(assert (= "#" (str.at var11 549)))
(assert (= "T" (str.at var14 73)))
(assert (= "V" (str.at var60 748)))
(assert (= "q" (str.at var53 817)))
(assert (= "n" (str.at var33 152)))
(assert (= "<" (str.at var28 941)))
(assert (= "D" (str.at var48 783)))
(assert (= "e" (str.at var15 757)))
(assert (= "r" (str.at var39 523)))
(assert (= "#" (str.at var19 2)))
(assert (= "7" (str.at var48 537)))
(assert (= "0" (str.at var46 391)))
(assert (= "c" (str.at var58 650)))
(assert (= "X" (str.at var17 810)))
(assert (= "q" (str.at var39 105)))
(assert (= "F" (str.at var57 331)))
(assert (= "7" (str.at var18 87)))
(assert (= "s" (str.at var31 742)))
(assert (= "`" (str.at var55 150)))
(assert (= "U" (str.at var31 622)))
(assert (= "_" (str.at var37 909)))
(assert (= "6" (str.at var13 539)))
(assert (= "m" (str.at var34 899)))
(assert (= "9" (str.at var32 59)))
(assert (= "a" (str.at var14 651)))
(assert (= ">" (str.at var31 68)))
(assert (= "i" (str.at var49 694)))
(assert (= "-" (str.at var57 780)))
(assert (= "0" (str.at var38 51)))
(assert (= "+" (str.at var44 345)))
(assert (= "Z" (str.at var24 203)))
(assert (= "}" (str.at var9 729)))
(assert (= "t" (str.at var48 454)))
(assert (= "q" (str.at var28 896)))
(assert (= "d" (str.at var34 407)))
(assert (= "'" (str.at var23 899)))
(assert (= "~" (str.at var57 980)))
(assert (= """" (str.at var12 289)))
(assert (= "X" (str.at var33 176)))
(assert (= "y" (str.at var11 369)))
(assert (= "c" (str.at var7 114)))
(assert (= "/" (str.at var15 24)))
(assert (= "(" (str.at var19 298)))
(assert (= "S" (str.at var17 756)))
(assert (= "h" (str.at var35 396)))
(assert (= "#" (str.at var16 488)))
(assert (= "s" (str.at var54 44)))
(assert (= "U" (str.at var13 364)))
(assert (= "*" (str.at var33 532)))
(assert (= ">" (str.at var59 915)))
(assert (= "g" (str.at var6 375)))
(assert (= "!" (str.at var49 178)))
(assert (= "?" (str.at var2 896)))
(assert (= "S" (str.at var52 463)))
(assert (= "$" (str.at var13 401)))
(assert (= "," (str.at var35 18)))
(assert (= "," (str.at var39 255)))
(assert (= "p" (str.at var7 495)))
(assert (= "t" (str.at var48 886)))
(assert (= "d" (str.at var12 906)))
(assert (= ">" (str.at var19 5)))
(assert (= "F" (str.at var20 465)))
(assert (= "b" (str.at var48 541)))
(assert (= "Q" (str.at var1 770)))
(assert (= "Y" (str.at var15 814)))
(assert (= "." (str.at var15 96)))
(assert (= "H" (str.at var40 340)))
(assert (= "s" (str.at var27 866)))
(assert (= "A" (str.at var21 469)))
(assert (= "/" (str.at var24 950)))
(assert (= "Z" (str.at var7 540)))
(assert (= "M" (str.at var30 763)))
(assert (= "&" (str.at var41 215)))
(assert (= "$" (str.at var39 320)))
(assert (= "d" (str.at var44 186)))
(assert (= "c" (str.at var54 777)))
(assert (= "H" (str.at var32 737)))
(assert (= "_" (str.at var28 110)))
(assert (= "s" (str.at var1 78)))
(assert (= "N" (str.at var27 745)))
(assert (= "E" (str.at var10 277)))
(assert (= "&" (str.at var35 99)))
(assert (= "W" (str.at var22 286)))
(assert (= "\\" (str.at var29 311)))
(assert (= "@" (str.at var25 665)))
(assert (= "=" (str.at var54 374)))
(assert (= "x" (str.at var7 45)))
(assert (= "n" (str.at var21 792)))
(assert (= "r" (str.at var35 302)))
(assert (= "6" (str.at var20 891)))
(assert (= "!" (str.at var54 827)))
(assert (= "=" (str.at var43 468)))
(assert (= "]" (str.at var11 327)))
(assert (= "G" (str.at var25 866)))
(assert (= "m" (str.at var30 250)))
(assert (= "i" (str.at var49 609)))
(assert (= "5" (str.at var33 312)))
(assert (= "b" (str.at var59 287)))
(assert (= "w" (str.at var30 543)))
(assert (= "d" (str.at var28 367)))
(assert (= "6" (str.at var52 655)))
(assert (= "-" (str.at var42 513)))
(assert (= "f" (str.at var12 136)))
(assert (= "!" (str.at var37 736)))
(assert (= "w" (str.at var7 304)))
(assert (= "I" (str.at var15 904)))
(assert (= "k" (str.at var33 447)))
(assert (= "{" (str.at var22 994)))
(assert (= "u" (str.at var46 594)))
(assert (= "R" (str.at var30 696)))
(assert (= "9" (str.at var26 251)))
(assert (= "R" (str.at var14 386)))
(assert (= "." (str.at var53 98)))
(assert (= "n" (str.at var27 374)))
(assert (= "u" (str.at var5 664)))
(assert (= """" (str.at var17 630)))
(assert (= "\\" (str.at var31 218)))
(assert (= "/" (str.at var12 193)))
(assert (= "*" (str.at var45 809)))
(assert (= "9" (str.at var53 576)))
(assert (= """" (str.at var30 735)))
(assert (= "R" (str.at var33 2)))
(assert (= "J" (str.at var41 56)))
(assert (= "e" (str.at var56 285)))
(assert (= "0" (str.at var2 804)))
(assert (= "C" (str.at var15 137)))
(assert (= "T" (str.at var1 39)))
(assert (= "m" (str.at var46 515)))
(assert (= "F" (str.at var43 789)))
(assert (= ">" (str.at var1 866)))
(assert (= ")" (str.at var34 293)))
(assert (= "0" (str.at var60 818)))
(assert (= "S" (str.at var48 253)))
(assert (= "Q" (str.at var22 292)))
(assert (= "G" (str.at var35 861)))
(assert (= "Y" (str.at var52 18)))
(assert (= "/" (str.at var50 904)))
(assert (= "B" (str.at var0 681)))
(assert (= "%" (str.at var6 451)))
(assert (= "w" (str.at var48 304)))
(assert (= "E" (str.at var16 649)))
(assert (= "S" (str.at var56 459)))
(assert (= "R" (str.at var9 29)))
(assert (= "[" (str.at var50 883)))
(assert (= "T" (str.at var46 591)))
(check-sat)